p cnf 184 377
1 0
2 0
3 0
4 0
5 0
6 0
7 0
8 0
9 0
10 0
-11 0
-12 0
-13 0
-14 0
-15 0
-16 0
-17 0
-18 0
-19 0
-20 0
-21 22 0
22 -23 0
21 23 -22 0
1 -22 0
-1 22 0
-23 24 0
-25 24 0
23 25 -24 0
21 -24 0
-21 24 0
-26 27 0
-28 27 0
26 28 -27 0
2 -27 0
-2 27 0
-29 30 0
-31 30 0
29 31 -30 0
26 -30 0
-26 30 0
-32 33 0
33 -34 0
32 34 -33 0
29 -33 0
-29 33 0
-35 36 0
-37 36 0
35 37 -36 0
32 -36 0
-32 36 0
-38 39 0
39 -40 0
38 40 -39 0
35 -39 0
-35 39 0
-41 42 0
-43 42 0
41 43 -42 0
38 -42 0
-38 42 0
-37 44 0
-40 44 0
-43 44 0
-45 44 0
37 40 43 45 -44 0
41 -44 0
-41 44 0
-46 47 0
47 -48 0
46 48 -47 0
3 -47 0
-3 47 0
-49 50 0
50 -51 0
49 51 -50 0
46 -50 0
-46 50 0
-52 53 0
-54 53 0
52 54 -53 0
49 -53 0
-49 53 0
-55 56 0
56 -57 0
55 57 -56 0
52 -56 0
-52 56 0
-58 59 0
59 -60 0
58 60 -59 0
55 -59 0
-55 59 0
-61 62 0
-63 62 0
61 63 -62 0
58 -62 0
-58 62 0
-57 64 0
-60 64 0
-63 64 0
64 -65 0
57 60 63 65 -64 0
61 -64 0
-61 64 0
-66 67 0
67 -68 0
66 68 -67 0
4 -67 0
-4 67 0
-69 70 0
70 -71 0
69 71 -70 0
66 -70 0
-66 70 0
69 -72 0
-69 72 0
-73 74 0
74 -75 0
73 75 -74 0
5 -74 0
-5 74 0
-76 77 0
-78 77 0
76 78 -77 0
73 -77 0
-73 77 0
-79 80 0
-81 80 0
79 81 -80 0
76 -80 0
-76 80 0
-82 83 0
-84 83 0
82 84 -83 0
79 -83 0
-79 83 0
-81 85 0
-84 85 0
85 -86 0
81 84 86 -85 0
82 -85 0
-82 85 0
-87 88 0
-89 88 0
87 89 -88 0
6 -88 0
-6 88 0
-90 91 0
-92 91 0
90 92 -91 0
87 -91 0
-87 91 0
-93 94 0
-95 94 0
93 95 -94 0
90 -94 0
-90 94 0
-96 97 0
97 -98 0
96 98 -97 0
93 -97 0
-93 97 0
-99 100 0
100 -101 0
99 101 -100 0
96 -100 0
-96 100 0
-101 102 0
-103 102 0
101 103 -102 0
99 -102 0
-99 102 0
-104 105 0
-106 105 0
104 106 -105 0
7 -105 0
-7 105 0
-107 108 0
108 -109 0
107 109 -108 0
104 -108 0
-104 108 0
-110 111 0
111 -112 0
110 112 -111 0
107 -111 0
-107 111 0
-113 114 0
-115 114 0
113 115 -114 0
110 -114 0
-110 114 0
-109 116 0
-112 116 0
-115 116 0
116 -117 0
109 112 115 117 -116 0
113 -116 0
-113 116 0
-118 119 0
119 -120 0
118 120 -119 0
8 -119 0
-8 119 0
-121 122 0
-123 122 0
121 123 -122 0
118 -122 0
-118 122 0
-124 125 0
-126 125 0
124 126 -125 0
121 -125 0
-121 125 0
-127 128 0
-129 128 0
127 129 -128 0
124 -128 0
-124 128 0
-126 130 0
-129 130 0
130 -131 0
126 129 131 -130 0
127 -130 0
-127 130 0
-132 133 0
-134 133 0
132 134 -133 0
9 -133 0
-9 133 0
-135 136 0
-137 136 0
135 137 -136 0
132 -136 0
-132 136 0
-138 139 0
-140 139 0
138 140 -139 0
135 -139 0
-135 139 0
-141 142 0
142 -143 0
141 143 -142 0
138 -142 0
-138 142 0
-144 145 0
145 -146 0
144 146 -145 0
141 -145 0
-141 145 0
-147 148 0
-149 148 0
147 149 -148 0
144 -148 0
-144 148 0
-146 150 0
-149 150 0
-151 150 0
146 149 151 -150 0
147 -150 0
-147 150 0
-152 153 0
153 -154 0
152 154 -153 0
10 -153 0
-10 153 0
-155 156 0
-157 156 0
155 157 -156 0
152 -156 0
-152 156 0
-158 159 0
-160 159 0
158 160 -159 0
155 -159 0
-155 159 0
-161 162 0
-163 162 0
161 163 -162 0
158 -162 0
-158 162 0
-163 164 0
164 -165 0
163 165 -164 0
161 -164 0
-161 164 0
11 -166 0
-11 166 0
12 -167 0
-12 167 0
13 -168 0
-13 168 0
14 -169 0
-14 169 0
15 -170 0
-15 170 0
16 -171 0
-16 171 0
17 -172 0
-17 172 0
18 -173 0
-18 173 0
19 -174 0
-19 174 0
20 -175 0
-20 175 0
23 -176 0
-176 -25 0
-176 -28 0
-176 -31 0
34 -176 0
-176 -37 0
40 -176 0
-176 -43 0
-176 -45 0
48 -176 0
51 -176 0
-176 -54 0
57 -176 0
60 -176 0
-176 -63 0
65 -176 0
68 -176 0
71 -176 0
-176 -72 0
75 -176 0
-176 -78 0
-176 -81 0
-176 -84 0
86 -176 0
-176 -89 0
-176 -92 0
-176 -95 0
98 -176 0
101 -176 0
-176 -103 0
-176 -106 0
109 -176 0
112 -176 0
-176 -115 0
117 -176 0
120 -176 0
-176 -123 0
-176 -126 0
-176 -129 0
131 -176 0
-176 -134 0
-176 -137 0
-176 -140 0
143 -176 0
146 -176 0
-176 -149 0
-176 -151 0
154 -176 0
-176 -157 0
-176 -160 0
-176 -163 0
165 -176 0
-176 -166 0
-176 -167 0
-176 -168 0
-176 -169 0
-176 -170 0
-176 -171 0
-176 -172 0
-176 -173 0
-176 -174 0
-176 -175 0
176 0
-177 0
-178 0
-179 0
-180 0
-181 0
-182 0
-183 0
-184 0
